echo both

include		in.partitions
include		in.temp
include		in.pressure
include		in.seed
units		real
atom_style	full
read_restart	restart.lmp.${pid}
include 	in.setup
include		in.dump

timer           timeout 23:30:00 every 1000

fix             1 all plumed plumedfile plumed.restart.dat outfile plumed.out
fix 		2 all shake 1e-6 200 0 b 1 a 1
fix             3 all nph x ${pressure} ${pressure} ${pressureDamp}
fix             4 all temp/csvr ${temperature} ${temperature} ${tempDamp} ${seed}

run             10000000 upto

unfix		4
unfix		3
unfix		2
unfix		1

write_data	data.final.${pid}
write_restart	restart.lmp.${pid}
