echo both

include		in.partitions
include		in.temp
include		in.pressure
include		in.seed
units		real
atom_style	full
read_restart	restart.lmp.${pid}
include 	in.setup

include         in.dump



fix 		1 all shake 1e-6 200 0 b 1 a 1
fix             2 all nph aniso ${pressure} ${pressure} ${pressureDamp}
fix             3 all temp/csvr ${temperature} ${temperature} ${tempDamp} ${seed}


run             250000

unfix		3
unfix		2
unfix		1

write_data	data.final.${pid}

write_restart   restart.lmp.${pid}
