echo both

include		in.partitions
include		in.temp
include		in.pressure
include		in.seed
units		real
atom_style	full



include 	in.box
include 	in.setup
include         in.dump

timer           timeout 23:50:00 every 1000


fix 		0 all shake 1e-6 200 0 b 1 a 1
fix             1 all nph {barostat} ${{pressure}} ${{pressure}} ${{pressureDamp}}
fix             2 all temp/csvr ${{temperature}} ${{temperature}} ${{tempDamp}} ${{seed}}
velocity        all create ${{temperature}} ${{seed}}

run             500000

unfix           1
unfix           2


# create group to melt
{meltPoint}
variable	xlo equal (xlo)
variable	xhi equal (xhi)
variable	ylo equal (ylo)
variable	yhi equal (yhi)
variable	zlo equal (zlo)
variable	zhi equal (zhi)

variable	xy equal (xy)
variable	xz equal (xz)
variable	yz equal (yz)


{meltRegion}
units box
group		tstatGrp region meltReg

# melt half the box in NPT
fix             1 tstatGrp nph x ${{pressure}} ${{pressure}} ${{pressureDamp}}
fix		2 tstatGrp temp/csvr ${{temperature}} ${{melttemp}} ${{tempDamp}} ${{seed}}

run             25000
write_restart   restart.melted
write_data   	water.data.melted

unfix 		2
fix		2 tstatGrp temp/csvr ${{melttemp}} ${{melttemp}} ${{tempDamp}} ${{seed}}

run             100000
write_restart   restart.melted
write_data   	water.data.melted

unfix 		2
fix		2 tstatGrp temp/csvr ${{melttemp}} ${{temperature}} ${{tempDamp}} ${{seed}}

run             25000
write_restart   restart.melted
write_data   	water.data.melted

# enable motion of ice oxygens
unfix		1
unfix		2
fix             1 all nph x ${{pressure}} ${{pressure}} ${{pressureDamp}}
fix             2 all temp/csvr ${{temperature}} ${{temperature}} ${{tempDamp}} ${{seed}}
velocity        all create ${{temperature}} ${{seed}}

run             100000

write_restart   restart.equil
write_data   	water.equil.data nocoeff
