variable	out_freq equal 1
variable	out_freq2 equal 1

timestep	2.0

neigh_modify    delay 7 every 1

include		in.tip4p

thermo          ${out_freq}
thermo_style 	custom step temp pe etotal epair emol press lx ly lz xy xz yz vol pxx pyy pzz pxy pxz pyz cella cellb cellc cellalpha cellbeta cellgamma

restart 	${out_freq} restart.lmp.${pid} restart2.lmp.${pid}

