echo both

include		in.partitions
include		in.temp
include		in.pressure
include		in.seed
units		real
atom_style	full
include		in.box
include 	in.setup



timer           timeout 47:30:00 every 1000

reset_timestep 0
log log.wall.${pid} append
fix             1 all plumed plumedfile plumed.start.dat outfile plumed.out
fix             2 all shake 1e-6 200 0 b 1 a 1
fix             3 all nph y ${pressure} ${pressure} ${pressureDamp}
fix             4 all temp/csvr ${temperature} ${temperature} ${tempDamp} ${seed}
velocity        all create ${temperature} ${seed} dist gaussian
run 0